100 8
847 360
482 153
705 358
219 782
153 685
848 334
936 614
502 48
766 338
96 755
672 305
285 338
830 381
262 746
803 527
173 373
501 420
963 328
323 84
959 252
520 171
589 283
147 788
281 849
286 403
448 104
371 892
545 581
883 389
229 872
289 328
149 333
129 940
115 981
285 369
343 974
902 183
481 154
49 839
267 753
262 239
864 504
231 884
172 747
743 228
114 806
890 107
792 298
609 354
512 499
264 230
57 891
538 275
835 517
272 356
759 137
780 452
778 108
202 817
165 822
614 451
731 483
376 29
336 196
366 160
201 800
868 525
110 965
467 155
218 721
417 89
300 300
947 227
292 676
667 185
567 263
482 150
314 921
116 452
217 940
581 555
310 720
542 462
913 194
242 255
875 384
404 101
897 472
256 387
626 294
709 425
776 389
981 548
622 396
556 299
554 420
457 179
905 513
307 738
919 498
